(set-info :smt-lib-version 2.6)
(set-info :category "crafted")
(set-logic QF_FF)
(define-sort FF0 () (_ FiniteField 52435875175126190479447740508185965837690552500527637822603658699938581184513))
(declare-fun out_alt () FF0)
(declare-fun _22_alt () FF0)
(declare-fun _3_alt () FF0)
(declare-fun _21_alt () FF0)
(declare-fun _6_alt () FF0)
(declare-fun _20_alt () FF0)
(declare-fun _13_alt () FF0)
(declare-fun _19_alt () FF0)
(declare-fun _9_alt () FF0)
(declare-fun _18_alt () FF0)
(declare-fun _8_alt () FF0)
(declare-fun _17_alt () FF0)
(declare-fun _7_alt () FF0)
(declare-fun _16_alt () FF0)
(declare-fun _5_alt () FF0)
(declare-fun _15_alt () FF0)
(declare-fun _4_alt () FF0)
(declare-fun _14_alt () FF0)
(declare-fun _2_alt () FF0)
(declare-fun _0_alt () FF0)
(declare-fun _1_alt () FF0)
(declare-fun _12_alt () FF0)
(declare-fun out () FF0)
(declare-fun _22 () FF0)
(declare-fun _3 () FF0)
(declare-fun _21 () FF0)
(declare-fun _6 () FF0)
(declare-fun _20 () FF0)
(declare-fun _13 () FF0)
(declare-fun _19 () FF0)
(declare-fun _9 () FF0)
(declare-fun _18 () FF0)
(declare-fun _8 () FF0)
(declare-fun _17 () FF0)
(declare-fun _7 () FF0)
(declare-fun _16 () FF0)
(declare-fun _5 () FF0)
(declare-fun _15 () FF0)
(declare-fun _4 () FF0)
(declare-fun _14 () FF0)
(declare-fun _2 () FF0)
(declare-fun _0 () FF0)
(declare-fun _1 () FF0)
(declare-fun _12 () FF0)
(assert 
  (let ((let0 out_alt))
  (let ((let1 _22_alt))
  (let ((let2 (= let1 let0)))
  (let ((let3 (as ff1 FF0)))
  (let ((let4 (as ff52435875175126190479447740508185965837690552500527637822603658699938581184512 FF0)))
  (let ((let5 _3_alt))
  (let ((let6 (ff.mul let5 let4)))
  (let ((let7 (ff.add let6 let3)))
  (let ((let8 _21_alt))
  (let ((let9 (ff.mul let8 let7)))
  (let ((let10 (= let9 let1)))
  (let ((let11 _6_alt))
  (let ((let12 (ff.mul let11 let4)))
  (let ((let13 (ff.add let12 let3)))
  (let ((let14 _20_alt))
  (let ((let15 (ff.mul let14 let13)))
  (let ((let16 (= let15 let8)))
  (let ((let17 _13_alt))
  (let ((let18 _19_alt))
  (let ((let19 (ff.mul let18 let17)))
  (let ((let20 (= let19 let14)))
  (let ((let21 _9_alt))
  (let ((let22 _18_alt))
  (let ((let23 (ff.mul let22 let21)))
  (let ((let24 (= let23 let18)))
  (let ((let25 _8_alt))
  (let ((let26 _17_alt))
  (let ((let27 (ff.mul let26 let25)))
  (let ((let28 (= let27 let22)))
  (let ((let29 _7_alt))
  (let ((let30 _16_alt))
  (let ((let31 (ff.mul let30 let29)))
  (let ((let32 (= let31 let26)))
  (let ((let33 _5_alt))
  (let ((let34 _15_alt))
  (let ((let35 (ff.mul let34 let33)))
  (let ((let36 (= let35 let30)))
  (let ((let37 _4_alt))
  (let ((let38 _14_alt))
  (let ((let39 (ff.mul let38 let37)))
  (let ((let40 (= let39 let34)))
  (let ((let41 _2_alt))
  (let ((let42 _0_alt))
  (let ((let43 (ff.mul let42 let41)))
  (let ((let44 (= let43 let38)))
  (let ((let45 _1_alt))
  (let ((let46 _12_alt))
  (let ((let47 (ff.mul let46 let45)))
  (let ((let48 (= let47 let17)))
  (let ((let49 (ff.mul let21 let21)))
  (let ((let50 (= let49 let21)))
  (let ((let51 (ff.mul let25 let25)))
  (let ((let52 (= let51 let25)))
  (let ((let53 (ff.mul let29 let29)))
  (let ((let54 (= let53 let29)))
  (let ((let55 (ff.mul let11 let11)))
  (let ((let56 (= let55 let11)))
  (let ((let57 (ff.mul let33 let33)))
  (let ((let58 (= let57 let33)))
  (let ((let59 (ff.mul let37 let37)))
  (let ((let60 (= let59 let37)))
  (let ((let61 (ff.mul let5 let5)))
  (let ((let62 (= let61 let5)))
  (let ((let63 (ff.mul let41 let41)))
  (let ((let64 (= let63 let41)))
  (let ((let65 (ff.mul let45 let45)))
  (let ((let66 (= let65 let45)))
  (let ((let67 (ff.mul let42 let42)))
  (let ((let68 (= let67 let42)))
  (let ((let69 (and let68 let66 let64 let62 let60 let58 let56 let54 let52 let50 let48 let44 let40 let36 let32 let28 let24 let20 let16 let10 let2)))
  (let ((let70 out))
  (let ((let71 _22))
  (let ((let72 (= let71 let70)))
  (let ((let73 _3))
  (let ((let74 (ff.mul let73 let4)))
  (let ((let75 (ff.add let74 let3)))
  (let ((let76 _21))
  (let ((let77 (ff.mul let76 let75)))
  (let ((let78 (= let77 let71)))
  (let ((let79 _6))
  (let ((let80 (ff.mul let79 let4)))
  (let ((let81 (ff.add let80 let3)))
  (let ((let82 _20))
  (let ((let83 (ff.mul let82 let81)))
  (let ((let84 (= let83 let76)))
  (let ((let85 _13))
  (let ((let86 _19))
  (let ((let87 (ff.mul let86 let85)))
  (let ((let88 (= let87 let82)))
  (let ((let89 _9))
  (let ((let90 _18))
  (let ((let91 (ff.mul let90 let89)))
  (let ((let92 (= let91 let86)))
  (let ((let93 _8))
  (let ((let94 _17))
  (let ((let95 (ff.mul let94 let93)))
  (let ((let96 (= let95 let90)))
  (let ((let97 _7))
  (let ((let98 _16))
  (let ((let99 (ff.mul let98 let97)))
  (let ((let100 (= let99 let94)))
  (let ((let101 _5))
  (let ((let102 _15))
  (let ((let103 (ff.mul let102 let101)))
  (let ((let104 (= let103 let98)))
  (let ((let105 _4))
  (let ((let106 _14))
  (let ((let107 (ff.mul let106 let105)))
  (let ((let108 (= let107 let102)))
  (let ((let109 _2))
  (let ((let110 _0))
  (let ((let111 (ff.mul let110 let109)))
  (let ((let112 (= let111 let106)))
  (let ((let113 _1))
  (let ((let114 _12))
  (let ((let115 (ff.mul let114 let113)))
  (let ((let116 (= let115 let85)))
  (let ((let117 (ff.mul let89 let89)))
  (let ((let118 (= let117 let89)))
  (let ((let119 (ff.mul let93 let93)))
  (let ((let120 (= let119 let93)))
  (let ((let121 (ff.mul let97 let97)))
  (let ((let122 (= let121 let97)))
  (let ((let123 (ff.mul let79 let79)))
  (let ((let124 (= let123 let79)))
  (let ((let125 (ff.mul let101 let101)))
  (let ((let126 (= let125 let101)))
  (let ((let127 (ff.mul let105 let105)))
  (let ((let128 (= let127 let105)))
  (let ((let129 (ff.mul let73 let73)))
  (let ((let130 (= let129 let73)))
  (let ((let131 (ff.mul let109 let109)))
  (let ((let132 (= let131 let109)))
  (let ((let133 (ff.mul let113 let113)))
  (let ((let134 (= let133 let113)))
  (let ((let135 (ff.mul let110 let110)))
  (let ((let136 (= let135 let110)))
  (let ((let137 (and let136 let134 let132 let130 let128 let126 let124 let122 let120 let118 let116 let112 let108 let104 let100 let96 let92 let88 let84 let78 let72)))
  (let ((let138 (= let70 let0)))
  (let ((let139 (not let138)))
  (let ((let140 (= let101 let33)))
  (let ((let141 (= let93 let25)))
  (let ((let142 (= let110 let42)))
  (let ((let143 (= let109 let41)))
  (let ((let144 (= let97 let29)))
  (let ((let145 (= let105 let37)))
  (let ((let146 (= let73 let5)))
  (let ((let147 (= let113 let45)))
  (let ((let148 (= let79 let11)))
  (let ((let149 (= let89 let21)))
  (let ((let150 (and let149 let148 let147 let146 let145 let144 let143 let142 let141 let140)))
  (let ((let151 (and let150 let139 let137 let69)))
  let151
))))))))))))))))))))))))))))))))))))))))))))))))))))))))))))))))))))))))))))))))))))))))))))))))))))))))))))))))))))))))))))))))))))))))))))))))))))))))
)
(check-sat)
